peakDumbCharging = 22200; 
Machine = anon_enum(16); 
machineSpeed = [3700,3700,3700,3700,3700,3700,3700,3700,3700,3700,3700,3700,3700,3700,3700,3700]; 
machineLoad = [3700,3700,3700,3700,3700,3700,3700,3700,3700,3700,3700,3700,3700,3700,3700,3700]; 
Car = anon_enum(16); 
demandCar = [14600,14000,12560,2040,1760,15760,5800,19880,8040,6680,8880,24000,21360,31160,34800,15800]; 
arrivalCar = [76,69,65,64,63,63,62,62,61,49,46,44,42,33,33,31]; 
departureCar = [81,75,70,71,65,69,66,70,65,54,50,55,49,52,51,65]; 
